100
128
32
7
23
5
42
4
35
3
6
27
20
14
7
30
11
30
2
10
8
31
15
7
50
6
11
28
23
5
7
6
3
2
41
41
3
20
32
11
49
47
11
23
19
18
32
45
57
36
26
41
49
19
57
36
46
44
39
13
62
41
36
20
51
22
25
14
39
47
37
52
25
1
32
55
19
18
47
26
40
30
40
50
27
51
18
60
44
64
64
24
44
22
31
33
55
54
48
31
26
40